Version identifier: 22.1.0.0 | 2022-03-09 | 1a383f8ce
CPXPARAM_Threads                                 1
CPXPARAM_MIP_Strategy_VariableSelect             3
CPXPARAM_TimeLimit                               599.99609398099994
Found incumbent of value 0.000000 after 0.00 sec. (0.55 ticks)

Root node processing (before b&c):
  Real time             =    0.00 sec. (0.63 ticks)
Sequential b&c:
  Real time             =    0.00 sec. (0.00 ticks)
                          ------------
Total (root+branch&cut) =    0.00 sec. (0.63 ticks)
Version identifier: 22.1.0.0 | 2022-03-09 | 1a383f8ce
CPXPARAM_Threads                                 1
CPXPARAM_MIP_Strategy_VariableSelect             3
CPXPARAM_TimeLimit                               599.97177111899998
Found incumbent of value 0.000000 after 0.00 sec. (0.60 ticks)

Root node processing (before b&c):
  Real time             =    0.00 sec. (0.67 ticks)
Sequential b&c:
  Real time             =    0.00 sec. (0.00 ticks)
                          ------------
Total (root+branch&cut) =    0.00 sec. (0.67 ticks)
Version identifier: 22.1.0.0 | 2022-03-09 | 1a383f8ce
CPXPARAM_Threads                                 1
CPXPARAM_MIP_Strategy_VariableSelect             3
CPXPARAM_TimeLimit                               599.94754884899999
Found incumbent of value 0.000000 after 0.00 sec. (0.62 ticks)

Root node processing (before b&c):
  Real time             =    0.00 sec. (0.70 ticks)
Sequential b&c:
  Real time             =    0.00 sec. (0.00 ticks)
                          ------------
Total (root+branch&cut) =    0.00 sec. (0.70 ticks)
Version identifier: 22.1.0.0 | 2022-03-09 | 1a383f8ce
CPXPARAM_Threads                                 1
CPXPARAM_MIP_Strategy_VariableSelect             3
CPXPARAM_TimeLimit                               599.92330076899998
Found incumbent of value 0.000000 after 0.00 sec. (0.63 ticks)

Root node processing (before b&c):
  Real time             =    0.00 sec. (0.71 ticks)
Sequential b&c:
  Real time             =    0.00 sec. (0.00 ticks)
                          ------------
Total (root+branch&cut) =    0.00 sec. (0.71 ticks)
Version identifier: 22.1.0.0 | 2022-03-09 | 1a383f8ce
CPXPARAM_Threads                                 1
CPXPARAM_MIP_Strategy_VariableSelect             3
CPXPARAM_TimeLimit                               599.89847929899997
Found incumbent of value 0.000000 after 0.00 sec. (0.65 ticks)

Root node processing (before b&c):
  Real time             =    0.00 sec. (0.73 ticks)
Sequential b&c:
  Real time             =    0.00 sec. (0.00 ticks)
                          ------------
Total (root+branch&cut) =    0.00 sec. (0.73 ticks)
Version identifier: 22.1.0.0 | 2022-03-09 | 1a383f8ce
CPXPARAM_Threads                                 1
CPXPARAM_MIP_Strategy_VariableSelect             3
CPXPARAM_TimeLimit                               599.87303740100003
Tried aggregator 1 time.
MIP Presolve eliminated 17 rows and 381 columns.
MIP Presolve modified 1 coefficients.
Reduced MIP has 2662 rows, 4191 columns, and 42037 nonzeros.
Reduced MIP has 4191 binaries, 0 generals, 0 SOSs, and 0 indicators.
Presolve time = 0.03 sec. (21.27 ticks)
Probing time = 0.00 sec. (3.15 ticks)
Tried aggregator 1 time.
Detecting symmetries...
Reduced MIP has 2662 rows, 4191 columns, and 42037 nonzeros.
Reduced MIP has 4191 binaries, 0 generals, 0 SOSs, and 0 indicators.
Presolve time = 0.03 sec. (26.05 ticks)
Probing time = 0.00 sec. (3.15 ticks)
Clique table members: 1894.
MIP emphasis: balance optimality and feasibility.
MIP search method: dynamic search.
Parallel mode: none, using 1 thread.
Root relaxation solution time = 0.04 sec. (34.06 ticks)

        Nodes                                         Cuts/
   Node  Left     Objective  IInf  Best Integer    Best Bound    ItCnt     Gap

      0     0        0.0000   117                      0.0000      683         
*     0+    0                            0.0000        0.0000             0.00%
      0     0        cutoff              0.0000        0.0000      683    0.00%
Elapsed time = 0.28 sec. (232.34 ticks, tree = 0.01 MB, solutions = 1)

Root node processing (before b&c):
  Real time             =    0.28 sec. (232.49 ticks)
Sequential b&c:
  Real time             =    0.00 sec. (0.00 ticks)
                          ------------
Total (root+branch&cut) =    0.28 sec. (232.49 ticks)
Version identifier: 22.1.0.0 | 2022-03-09 | 1a383f8ce
CPXPARAM_Threads                                 1
CPXPARAM_MIP_Strategy_VariableSelect             3
CPXPARAM_TimeLimit                               599.569979601
Tried aggregator 1 time.
MIP Presolve eliminated 17 rows and 382 columns.
MIP Presolve modified 1 coefficients.
Reduced MIP has 2669 rows, 4202 columns, and 42148 nonzeros.
Reduced MIP has 4202 binaries, 0 generals, 0 SOSs, and 0 indicators.
Presolve time = 0.03 sec. (21.33 ticks)
Probing time = 0.00 sec. (3.15 ticks)
Tried aggregator 1 time.
Detecting symmetries...
Reduced MIP has 2669 rows, 4202 columns, and 42148 nonzeros.
Reduced MIP has 4202 binaries, 0 generals, 0 SOSs, and 0 indicators.
Presolve time = 0.03 sec. (26.12 ticks)
Probing time = 0.00 sec. (3.15 ticks)
Clique table members: 1899.
MIP emphasis: balance optimality and feasibility.
MIP search method: dynamic search.
Parallel mode: none, using 1 thread.
Root relaxation solution time = 0.04 sec. (35.68 ticks)

        Nodes                                         Cuts/
   Node  Left     Objective  IInf  Best Integer    Best Bound    ItCnt     Gap

      0     0        0.0000   156                      0.0000      764         
*     0+    0                            0.0000        0.0000             0.00%
      0     0        cutoff              0.0000        0.0000      764    0.00%
Elapsed time = 0.30 sec. (249.26 ticks, tree = 0.01 MB, solutions = 1)

Root node processing (before b&c):
  Real time             =    0.30 sec. (249.41 ticks)
Sequential b&c:
  Real time             =    0.00 sec. (0.00 ticks)
                          ------------
Total (root+branch&cut) =    0.30 sec. (249.41 ticks)
Primal:	382
Dual:	382
Status:	Optimal
Time:	0.752904
Sequence:
	9
	5
	9
	6
	9
	5
	9
	1
	9
	9
	4
	9
	9
	6
	9
	7
	9
	9
	9
	5
	9
	9
	6
	9
	9
	9
	9
	9
	9
	9
	9
	9
	9
	6
	9
	9
	4
	9
	9
	4
	9
	9
	9
	5
	9
	5
	9
	9
	4
	9
	9
	9
	9
	7
	9
	9
	1
	9
	1
	9
	9
	1
	9
	9
	9
	9
	1
	9
	9
	9
	9
	9
	9
	9
	9
	1
	9
	9
	9
	9
	1
	9
	9
	9
	9
	9
	9
	6
	9
	9
	1
	9
	4
	4
	9
	6
	4
	9
	5
	9
	9
	4
	5
	0
	1
	4
	6
	9
	1
	9
	5
	0
	4
	6
	9
	7
	9
	5
	9
	6
	4
	1
	9
	6
	4
	1
	4
	1
	4
	3
	4
	4
	10
	4
	1
	4
	9
	1
	4
	0
	7
	4
	1
	4
	1
	4
	1
	0
	1
	4
	9
	7
	9
	4
	5
	0
	1
	4
	6
	0
	5
	4
	1
	4
	9
	6
	4
	1
	4
	9
	7
	0
	1
	4
	4
	9
	1
	4
	1
	9
	5
	4
	9
	1
	4
	1
	4
	6
	9
	3
	4
	4
	1
	0
	5
	4
	1
	4
	0
	5
	4
	10
	0
	6
	4
	1
	4
	4
	9
	9
	6
	0
	5
	9
	7
	9
	8
	1
	4
	9
	4
	6
	9
	1
	4
	5
	0
	7
	9
	9
	1
	0
	9
	6
	9
	7
	4
	1
	4
	6
	0
	4
	9
	1
	9
	4
	4
	1
	4
	1
	9
	4
	5
	9
	4
	9
	4
	11
	9
	6
	4
	0
	4
	4
	9
	5
	0
	6
	4
	9
	9
	4
	1
	4
	0
	7
	4
	1
	0
	5
	9
	4
	7
	9
	4
	6
	9
	9
	4
	6
	0
	11
	4
	9
	4
	1
	4
	9
	5
	4
	1
	4
	1
	4
	3
	9
	9
	1
	9
	4
	5
	0
	6
	4
	9
	4
	9
	5
	9
	7
	4
	1
	4
	1
	4
	5
	9
	7
	4
	9
	6
	9
	1
	9
	6
	9
	5
	0
	4
	7
	9
	1
	4
	4
	1
	4
	1
	9
	1
	4
	9
	1
	4
	4
	9
	4
	6
	9
	1
	0
	9
	7
	4
	0
	6
	4
	9
	1
	4
	4
	1
	0
	4
	7
	9
	6
	0
	4
	4
	1
	8
	5
